p cnf 830 2427
-50 -7 0
-50 -8 0
50 7 8 0
-51 -9 0
-51 50 0
51 9 -50 0
-52 -12 0
-52 -13 0
52 12 13 0
-53 11 0
-53 -52 0
53 -11 52 0
-54 -8 0
-54 -9 0
54 8 9 0
-55 7 0
-55 -54 0
55 -7 54 0
-56 1 0
-56 2 0
56 -1 -2 0
-57 1 0
-57 -2 0
57 -1 2 0
-58 3 0
-58 57 0
58 -3 -57 0
-59 -37 36 0
-59 37 -36 0
59 -37 -36 0
59 37 36 0
-60 -35 34 0
-60 35 -34 0
60 -35 -34 0
60 35 34 0
-61 -60 59 0
-61 60 -59 0
61 -60 -59 0
61 60 59 0
-62 -33 32 0
-62 33 -32 0
62 -33 -32 0
62 33 32 0
-63 -31 30 0
-63 31 -30 0
63 -31 -30 0
63 31 30 0
-64 -63 62 0
-64 63 -62 0
64 -63 -62 0
64 63 62 0
-65 14 -13 0
-65 -14 13 0
65 14 13 0
65 -14 -13 0
-66 12 -11 0
-66 -12 11 0
66 12 11 0
66 -12 -11 0
-67 -66 65 0
-67 66 -65 0
67 -66 -65 0
67 66 65 0
-68 10 -9 0
-68 -10 9 0
68 10 9 0
68 -10 -9 0
-69 8 7 0
-69 -8 -7 0
69 8 -7 0
69 -8 7 0
-70 -69 68 0
-70 69 -68 0
70 -69 -68 0
70 69 68 0
-71 -11 0
-71 -12 0
71 11 12 0
-72 -13 0
-72 71 0
72 13 -71 0
-73 3 0
-73 -72 0
73 -3 72 0
-74 -3 0
-74 4 0
74 3 -4 0
-75 12 0
-75 74 0
75 -12 -74 0
-76 -3 0
-76 -74 0
76 3 74 0
-77 9 0
-77 76 0
77 -9 -76 0
-78 -73 0
-78 -75 0
78 73 75 0
-79 -77 0
-79 78 0
79 77 -78 0
-80 1 0
-80 3 0
80 -1 -3 0
-81 4 0
-81 80 0
81 -4 -80 0
-82 -56 0
-82 -81 0
82 56 81 0
-83 -79 0
-83 -82 0
83 79 82 0
-84 2 0
-84 3 0
84 -2 -3 0
-85 -1 0
-85 84 0
85 1 -84 0
-86 -11 0
-86 85 0
86 11 -85 0
-87 -1 0
-87 4 0
87 1 -4 0
-88 82 0
-88 -85 0
88 -82 85 0
-89 11 0
-89 -87 0
89 -11 87 0
-90 88 0
-90 89 0
90 -88 -89 0
-91 -83 0
-91 -86 0
91 83 86 0
-92 -90 0
-92 91 0
92 90 -91 0
-93 4 0
-93 5 0
93 -4 -5 0
-94 56 0
-94 -93 0
94 -56 93 0
-95 -1 0
-95 6 0
95 1 -6 0
-96 34 0
-96 -94 0
96 -34 94 0
-97 38 0
-97 -94 0
97 -38 94 0
-98 4 0
-98 14 0
98 -4 -14 0
-99 -4 0
-99 -49 0
99 4 49 0
-100 32 0
-100 99 0
100 -32 -99 0
-101 -4 0
-101 -99 0
101 4 99 0
-102 33 0
-102 101 0
102 -33 -101 0
-103 -98 0
-103 -100 0
103 98 100 0
-104 -102 0
-104 103 0
104 102 -103 0
-105 94 0
-105 -104 0
105 -94 104 0
-106 -95 -97 0
-106 95 -96 0
106 -95 97 0
106 95 96 0
-107 -105 0
-107 106 0
107 105 -106 0
-108 23 0
-108 -92 0
108 -23 92 0
-109 24 0
-109 -92 0
109 -24 92 0
-110 -107 -109 0
-110 107 -108 0
110 -107 109 0
110 107 108 0
-111 25 0
-111 92 0
111 -25 -92 0
-112 26 0
-112 92 0
112 -26 -92 0
-113 107 -112 0
-113 -107 -111 0
113 107 112 0
113 -107 111 0
-114 92 0
-114 113 0
114 -92 -113 0
-115 110 0
-115 -114 0
115 -110 114 0
-116 -13 12 0
-116 13 -12 0
116 -13 -12 0
116 13 12 0
-117 3 0
-117 116 0
117 -3 -116 0
-118 13 0
-118 74 0
118 -13 -74 0
-119 10 0
-119 76 0
119 -10 -76 0
-120 -117 0
-120 -118 0
120 117 118 0
-121 -119 0
-121 120 0
121 119 -120 0
-122 -82 0
-122 -121 0
122 82 121 0
-123 -12 0
-123 85 0
123 12 -85 0
-124 12 0
-124 -87 0
124 -12 87 0
-125 88 0
-125 124 0
125 -88 -124 0
-126 -122 0
-126 -123 0
126 122 123 0
-127 -125 0
-127 126 0
127 125 -126 0
-128 -5 0
-128 95 0
128 5 -95 0
-129 35 0
-129 -94 0
129 -35 94 0
-130 4 0
-130 39 0
130 -4 -39 0
-131 33 0
-131 99 0
131 -33 -99 0
-132 34 0
-132 101 0
132 -34 -101 0
-133 -130 0
-133 -131 0
133 130 131 0
-134 -132 0
-134 133 0
134 132 -133 0
-135 94 0
-135 -134 0
135 -94 134 0
-136 -128 -97 0
-136 128 -129 0
136 -128 97 0
136 128 129 0
-137 -135 0
-137 136 0
137 135 -136 0
-138 23 0
-138 -127 0
138 -23 127 0
-139 24 0
-139 -127 0
139 -24 127 0
-140 -137 -139 0
-140 137 -138 0
140 -137 139 0
140 137 138 0
-141 25 0
-141 127 0
141 -25 -127 0
-142 26 0
-142 127 0
142 -26 -127 0
-143 137 -142 0
-143 -137 -141 0
143 137 142 0
143 -137 141 0
-144 127 0
-144 143 0
144 -127 -143 0
-145 140 0
-145 -144 0
145 -140 144 0
-146 3 0
-146 -13 0
146 -3 13 0
-147 14 0
-147 74 0
147 -14 -74 0
-148 11 0
-148 76 0
148 -11 -76 0
-149 -146 0
-149 -147 0
149 146 147 0
-150 -148 0
-150 149 0
150 148 -149 0
-151 -82 0
-151 -150 0
151 82 150 0
-152 -13 0
-152 85 0
152 13 -85 0
-153 13 0
-153 -87 0
153 -13 87 0
-154 88 0
-154 153 0
154 -88 -153 0
-155 -151 0
-155 -152 0
155 151 152 0
-156 -154 0
-156 155 0
156 154 -155 0
-157 36 0
-157 -94 0
157 -36 94 0
-158 4 0
-158 40 0
158 -4 -40 0
-159 34 0
-159 99 0
159 -34 -99 0
-160 35 0
-160 101 0
160 -35 -101 0
-161 -158 0
-161 -159 0
161 158 159 0
-162 -160 0
-162 161 0
162 160 -161 0
-163 94 0
-163 -162 0
163 -94 162 0
-164 128 -157 0
-164 -128 -97 0
164 128 157 0
164 -128 97 0
-165 -163 0
-165 164 0
165 163 -164 0
-166 23 0
-166 -156 0
166 -23 156 0
-167 24 0
-167 -156 0
167 -24 156 0
-168 -165 -167 0
-168 165 -166 0
168 -165 167 0
168 165 166 0
-169 25 0
-169 156 0
169 -25 -156 0
-170 26 0
-170 156 0
170 -26 -156 0
-171 165 -170 0
-171 -165 -169 0
171 165 170 0
171 -165 169 0
-172 156 0
-172 171 0
172 -156 -171 0
-173 168 0
-173 -172 0
173 -168 172 0
-174 3 0
-174 14 0
174 -3 -14 0
-175 39 0
-175 74 0
175 -39 -74 0
-176 12 0
-176 76 0
176 -12 -76 0
-177 -174 0
-177 -175 0
177 174 175 0
-178 -176 0
-178 177 0
178 176 -177 0
-179 -82 0
-179 -178 0
179 82 178 0
-180 -14 0
-180 85 0
180 14 -85 0
-181 14 0
-181 -87 0
181 -14 87 0
-182 88 0
-182 181 0
182 -88 -181 0
-183 -179 0
-183 -180 0
183 179 180 0
-184 -182 0
-184 183 0
184 182 -183 0
-185 37 0
-185 -94 0
185 -37 94 0
-186 4 0
-186 41 0
186 -4 -41 0
-187 35 0
-187 99 0
187 -35 -99 0
-188 36 0
-188 101 0
188 -36 -101 0
-189 -186 0
-189 -187 0
189 186 187 0
-190 -188 0
-190 189 0
190 188 -189 0
-191 94 0
-191 -190 0
191 -94 190 0
-192 128 -185 0
-192 -128 -97 0
192 128 185 0
192 -128 97 0
-193 -191 0
-193 192 0
193 191 -192 0
-194 23 0
-194 -184 0
194 -23 184 0
-195 24 0
-195 -184 0
195 -24 184 0
-196 -193 -195 0
-196 193 -194 0
196 -193 195 0
196 193 194 0
-197 25 0
-197 184 0
197 -25 -184 0
-198 26 0
-198 184 0
198 -26 -184 0
-199 193 -198 0
-199 -193 -197 0
199 193 198 0
199 -193 197 0
-200 184 0
-200 199 0
200 -184 -199 0
-201 196 0
-201 -200 0
201 -196 200 0
-202 115 0
-202 145 0
202 -115 -145 0
-203 173 0
-203 202 0
203 -173 -202 0
-204 201 0
-204 203 0
204 -201 -203 0
-205 3 0
-205 -51 0
205 -3 51 0
-206 8 0
-206 74 0
206 -8 -74 0
-207 21 0
-207 76 0
207 -21 -76 0
-208 -205 0
-208 -206 0
208 205 206 0
-209 -207 0
-209 208 0
209 207 -208 0
-210 -82 0
-210 -209 0
210 82 209 0
-211 -7 0
-211 85 0
211 7 -85 0
-212 -1 0
-212 3 0
212 1 -3 0
-213 7 0
-213 -212 0
213 -7 212 0
-214 88 0
-214 213 0
214 -88 -213 0
-215 -210 0
-215 -211 0
215 210 211 0
-216 -214 0
-216 215 0
216 214 -215 0
-217 -5 0
-217 -6 0
217 5 6 0
-218 -1 0
-218 -217 0
218 1 217 0
-219 30 0
-219 -94 0
219 -30 94 0
-220 4 0
-220 10 0
220 -4 -10 0
-221 28 0
-221 99 0
221 -28 -99 0
-222 29 0
-222 101 0
222 -29 -101 0
-223 -220 0
-223 -221 0
223 220 221 0
-224 -222 0
-224 223 0
224 222 -223 0
-225 94 0
-225 -224 0
225 -94 224 0
-226 -218 -97 0
-226 218 -219 0
226 -218 97 0
226 218 219 0
-227 -225 0
-227 226 0
227 225 -226 0
-228 23 0
-228 -216 0
228 -23 216 0
-229 24 0
-229 -216 0
229 -24 216 0
-230 -227 -229 0
-230 227 -228 0
230 -227 229 0
230 227 228 0
-231 25 0
-231 216 0
231 -25 -216 0
-232 26 0
-232 216 0
232 -26 -216 0
-233 227 -232 0
-233 -227 -231 0
233 227 232 0
233 -227 231 0
-234 216 0
-234 233 0
234 -216 -233 0
-235 230 0
-235 -234 0
235 -230 234 0
-236 -9 8 0
-236 9 -8 0
236 -9 -8 0
236 9 8 0
-237 3 0
-237 236 0
237 -3 -236 0
-238 9 0
-238 74 0
238 -9 -74 0
-239 22 0
-239 76 0
239 -22 -76 0
-240 -237 0
-240 -238 0
240 237 238 0
-241 -239 0
-241 240 0
241 239 -240 0
-242 -82 0
-242 -241 0
242 82 241 0
-243 -8 0
-243 85 0
243 8 -85 0
-244 8 0
-244 -212 0
244 -8 212 0
-245 88 0
-245 244 0
245 -88 -244 0
-246 -242 0
-246 -243 0
246 242 243 0
-247 -245 0
-247 246 0
247 245 -246 0
-248 31 0
-248 -94 0
248 -31 94 0
-249 4 0
-249 11 0
249 -4 -11 0
-250 29 0
-250 99 0
250 -29 -99 0
-251 30 0
-251 101 0
251 -30 -101 0
-252 -249 0
-252 -250 0
252 249 250 0
-253 -251 0
-253 252 0
253 251 -252 0
-254 94 0
-254 -253 0
254 -94 253 0
-255 218 -248 0
-255 -218 -97 0
255 218 248 0
255 -218 97 0
-256 -254 0
-256 255 0
256 254 -255 0
-257 23 0
-257 -247 0
257 -23 247 0
-258 24 0
-258 -247 0
258 -24 247 0
-259 -256 -258 0
-259 256 -257 0
259 -256 258 0
259 256 257 0
-260 25 0
-260 247 0
260 -25 -247 0
-261 26 0
-261 247 0
261 -26 -247 0
-262 256 -261 0
-262 -256 -260 0
262 256 261 0
262 -256 260 0
-263 247 0
-263 262 0
263 -247 -262 0
-264 259 0
-264 -263 0
264 -259 263 0
-265 3 0
-265 -9 0
265 -3 9 0
-266 10 0
-266 74 0
266 -10 -74 0
-267 7 0
-267 76 0
267 -7 -76 0
-268 -265 0
-268 -266 0
268 265 266 0
-269 -267 0
-269 268 0
269 267 -268 0
-270 -82 0
-270 -269 0
270 82 269 0
-271 -9 0
-271 85 0
271 9 -85 0
-272 9 0
-272 -212 0
272 -9 212 0
-273 88 0
-273 272 0
273 -88 -272 0
-274 -270 0
-274 -271 0
274 270 271 0
-275 -273 0
-275 274 0
275 273 -274 0
-276 32 0
-276 -94 0
276 -32 94 0
-277 4 0
-277 12 0
277 -4 -12 0
-278 30 0
-278 99 0
278 -30 -99 0
-279 31 0
-279 101 0
279 -31 -101 0
-280 -277 0
-280 -278 0
280 277 278 0
-281 -279 0
-281 280 0
281 279 -280 0
-282 94 0
-282 -281 0
282 -94 281 0
-283 218 -276 0
-283 -218 -97 0
283 218 276 0
283 -218 97 0
-284 -282 0
-284 283 0
284 282 -283 0
-285 23 0
-285 -275 0
285 -23 275 0
-286 24 0
-286 -275 0
286 -24 275 0
-287 -284 -286 0
-287 284 -285 0
287 -284 286 0
287 284 285 0
-288 25 0
-288 275 0
288 -25 -275 0
-289 26 0
-289 275 0
289 -26 -275 0
-290 284 -289 0
-290 -284 -288 0
290 284 289 0
290 -284 288 0
-291 275 0
-291 290 0
291 -275 -290 0
-292 287 0
-292 -291 0
292 -287 291 0
-293 3 0
-293 10 0
293 -3 -10 0
-294 11 0
-294 74 0
294 -11 -74 0
-295 8 0
-295 76 0
295 -8 -76 0
-296 -293 0
-296 -294 0
296 293 294 0
-297 -295 0
-297 296 0
297 295 -296 0
-298 -82 0
-298 -297 0
298 82 297 0
-299 -10 0
-299 85 0
299 10 -85 0
-300 10 0
-300 -212 0
300 -10 212 0
-301 88 0
-301 300 0
301 -88 -300 0
-302 -298 0
-302 -299 0
302 298 299 0
-303 -301 0
-303 302 0
303 301 -302 0
-304 33 0
-304 -94 0
304 -33 94 0
-305 4 0
-305 13 0
305 -4 -13 0
-306 31 0
-306 99 0
306 -31 -99 0
-307 32 0
-307 101 0
307 -32 -101 0
-308 -305 0
-308 -306 0
308 305 306 0
-309 -307 0
-309 308 0
309 307 -308 0
-310 94 0
-310 -309 0
310 -94 309 0
-311 218 -304 0
-311 -218 -97 0
311 218 304 0
311 -218 97 0
-312 -310 0
-312 311 0
312 310 -311 0
-313 23 0
-313 -303 0
313 -23 303 0
-314 24 0
-314 -303 0
314 -24 303 0
-315 -312 -314 0
-315 312 -313 0
315 -312 314 0
315 312 313 0
-316 25 0
-316 303 0
316 -25 -303 0
-317 26 0
-317 303 0
317 -26 -303 0
-318 312 -317 0
-318 -312 -316 0
318 312 317 0
318 -312 316 0
-319 303 0
-319 318 0
319 -303 -318 0
-320 315 0
-320 -319 0
320 -315 319 0
-321 235 0
-321 264 0
321 -235 -264 0
-322 292 0
-322 321 0
322 -292 -321 0
-323 320 0
-323 322 0
323 -320 -322 0
-324 115 0
-324 -140 0
324 -115 140 0
-325 -168 0
-325 202 0
325 168 -202 0
-326 145 0
-326 -196 0
326 -145 196 0
-327 173 0
-327 326 0
327 -173 -326 0
-328 115 0
-328 327 0
328 -115 -327 0
-329 110 0
-329 -324 0
329 -110 324 0
-330 -325 0
-330 329 0
330 325 -329 0
-331 -328 0
-331 330 0
331 328 -330 0
-332 235 0
-332 -259 0
332 -235 259 0
-333 -287 0
-333 321 0
333 287 -321 0
-334 264 0
-334 -315 0
334 -264 315 0
-335 292 0
-335 334 0
335 -292 -334 0
-336 235 0
-336 335 0
336 -235 -335 0
-337 230 0
-337 -332 0
337 -230 332 0
-338 -333 0
-338 337 0
338 333 -337 0
-339 -336 0
-339 338 0
339 336 -338 0
-340 -1 0
-340 2 0
340 1 -2 0
-341 -3 0
-341 340 0
341 3 -340 0
-342 27 0
-342 341 0
342 -27 -341 0
-343 48 0
-343 342 0
343 -48 -342 0
-344 -184 0
-344 343 0
344 184 -343 0
-345 -344 201 0
-345 344 -201 0
345 -344 -201 0
345 344 201 0
-346 -156 0
-346 343 0
346 156 -343 0
-347 -346 173 0
-347 346 -173 0
347 -346 -173 0
347 346 173 0
-348 -345 0
-348 -347 0
348 345 347 0
-349 -168 0
-349 -343 0
349 168 343 0
-350 -196 0
-350 -343 0
350 196 343 0
-351 -347 0
-351 350 0
351 347 -350 0
-352 -349 0
-352 -351 0
352 349 351 0
-353 47 0
-353 348 0
353 -47 -348 0
-354 -5 0
-354 58 0
354 5 -58 0
-355 -107 0
-355 -137 0
355 107 137 0
-356 -165 0
-356 355 0
356 165 -355 0
-357 -193 0
-357 356 0
357 193 -356 0
-358 107 0
-358 137 0
358 -107 -137 0
-359 165 0
-359 358 0
359 -165 -358 0
-360 193 0
-360 359 0
360 -193 -359 0
-361 -24 -360 0
-361 24 -357 0
361 -24 360 0
361 24 357 0
-362 343 -204 0
-362 -343 361 0
362 343 204 0
362 -343 -361 0
-363 -331 0
-363 -343 0
363 331 343 0
-364 47 0
-364 -362 0
364 -47 362 0
-365 -363 0
-365 364 0
365 363 -364 0
-366 -363 0
-366 -365 0
366 363 365 0
-367 -14 0
-367 72 0
367 14 -72 0
-368 345 47 0
-368 -345 -47 0
368 345 -47 0
368 -345 47 0
-369 2 0
-369 -3 0
369 -2 3 0
-370 6 0
-370 369 0
370 -6 -369 0
-371 1 0
-371 -370 0
371 -1 370 0
-372 -368 0
-372 -371 0
372 368 371 0
-373 354 0
-373 -368 0
373 -354 368 0
-374 3 0
-374 -25 0
374 -3 25 0
-375 3 0
-375 26 0
375 -3 -26 0
-376 3 0
-376 24 0
376 -3 -24 0
-377 -375 0
-377 -376 0
377 375 376 0
-378 374 0
-378 377 0
378 -374 -377 0
-379 22 0
-379 378 0
379 -22 -378 0
-380 375 0
-380 -376 0
380 -375 376 0
-381 374 0
-381 380 0
381 -374 -380 0
-382 13 0
-382 381 0
382 -13 -381 0
-383 -374 0
-383 377 0
383 374 -377 0
-384 12 0
-384 383 0
384 -12 -383 0
-385 -374 0
-385 380 0
385 374 -380 0
-386 11 0
-386 385 0
386 -11 -385 0
-387 -26 0
-387 376 0
387 26 -376 0
-388 374 0
-388 387 0
388 -374 -387 0
-389 10 0
-389 388 0
389 -10 -388 0
-390 26 0
-390 376 0
390 -26 -376 0
-391 374 0
-391 390 0
391 -374 -390 0
-392 9 0
-392 391 0
392 -9 -391 0
-393 -374 0
-393 387 0
393 374 -387 0
-394 8 0
-394 393 0
394 -8 -393 0
-395 -374 0
-395 390 0
395 374 -390 0
-396 7 0
-396 395 0
396 -7 -395 0
-397 -379 0
-397 -382 0
397 379 382 0
-398 -384 0
-398 397 0
398 384 -397 0
-399 -386 0
-399 398 0
399 386 -398 0
-400 -389 0
-400 399 0
400 389 -399 0
-401 -392 0
-401 400 0
401 392 -400 0
-402 -394 0
-402 401 0
402 394 -401 0
-403 -396 0
-403 402 0
403 396 -402 0
-404 46 0
-404 378 0
404 -46 -378 0
-405 39 0
-405 381 0
405 -39 -381 0
-406 40 0
-406 383 0
406 -40 -383 0
-407 41 0
-407 385 0
407 -41 -385 0
-408 42 0
-408 388 0
408 -42 -388 0
-409 43 0
-409 391 0
409 -43 -391 0
-410 44 0
-410 393 0
410 -44 -393 0
-411 45 0
-411 395 0
411 -45 -395 0
-412 -404 0
-412 -405 0
412 404 405 0
-413 -406 0
-413 412 0
413 406 -412 0
-414 -407 0
-414 413 0
414 407 -413 0
-415 -408 0
-415 414 0
415 408 -414 0
-416 -409 0
-416 415 0
416 409 -415 0
-417 -410 0
-417 416 0
417 410 -416 0
-418 -411 0
-418 417 0
418 411 -417 0
-419 -4 -418 0
-419 4 -403 0
419 -4 418 0
419 4 403 0
-420 3 0
-420 -23 0
420 -3 23 0
-421 56 0
-421 -420 0
421 -56 420 0
-422 -419 0
-422 421 0
422 419 -421 0
-423 -2 0
-423 -3 0
423 2 3 0
-424 -4 0
-424 423 0
424 4 -423 0
-425 345 0
-425 424 0
425 -345 -424 0
-426 6 -55 0
-426 -6 70 0
426 6 55 0
426 -6 -70 0
-427 4 0
-427 58 0
427 -4 -58 0
-428 426 0
-428 427 0
428 -426 -427 0
-429 -4 0
-429 58 0
429 4 -58 0
-430 -53 0
-430 429 0
430 53 -429 0
-431 -427 0
-431 -429 0
431 427 429 0
-432 -14 0
-432 431 0
432 14 -431 0
-433 -428 0
-433 -430 0
433 428 430 0
-434 -432 0
-434 433 0
434 432 -433 0
-435 -421 0
-435 -424 0
435 421 424 0
-436 -434 0
-436 435 0
436 434 -435 0
-437 -422 0
-437 -425 0
437 422 425 0
-438 -436 0
-438 437 0
438 436 -437 0
-439 -354 0
-439 371 0
439 354 -371 0
-440 438 0
-440 439 0
440 -438 -439 0
-441 -372 0
-441 -373 0
441 372 373 0
-442 -440 0
-442 441 0
442 440 -441 0
-443 -303 0
-443 343 0
443 303 -343 0
-444 -443 320 0
-444 443 -320 0
444 -443 -320 0
444 443 320 0
-445 444 363 0
-445 -444 -363 0
445 444 -363 0
445 -444 363 0
-446 -445 -364 0
-446 445 364 0
446 -445 364 0
446 445 -364 0
-447 -371 0
-447 -446 0
447 371 446 0
-448 354 0
-448 -446 0
448 -354 446 0
-449 18 0
-449 378 0
449 -18 -378 0
-450 9 0
-450 381 0
450 -9 -381 0
-451 8 0
-451 383 0
451 -8 -383 0
-452 7 0
-452 385 0
452 -7 -385 0
-453 22 0
-453 388 0
453 -22 -388 0
-454 21 0
-454 391 0
454 -21 -391 0
-455 20 0
-455 393 0
455 -20 -393 0
-456 19 0
-456 395 0
456 -19 -395 0
-457 -449 0
-457 -450 0
457 449 450 0
-458 -451 0
-458 457 0
458 451 -457 0
-459 -452 0
-459 458 0
459 452 -458 0
-460 -453 0
-460 459 0
460 453 -459 0
-461 -454 0
-461 460 0
461 454 -460 0
-462 -455 0
-462 461 0
462 455 -461 0
-463 -456 0
-463 462 0
463 456 -462 0
-464 42 0
-464 378 0
464 -42 -378 0
-465 11 0
-465 381 0
465 -11 -381 0
-466 13 0
-466 385 0
466 -13 -385 0
-467 14 0
-467 388 0
467 -14 -388 0
-468 39 0
-468 391 0
468 -39 -391 0
-469 40 0
-469 393 0
469 -40 -393 0
-470 41 0
-470 395 0
470 -41 -395 0
-471 -464 0
-471 -465 0
471 464 465 0
-472 -384 0
-472 471 0
472 384 -471 0
-473 -466 0
-473 472 0
473 466 -472 0
-474 -467 0
-474 473 0
474 467 -473 0
-475 -468 0
-475 474 0
475 468 -474 0
-476 -469 0
-476 475 0
476 469 -475 0
-477 -470 0
-477 476 0
477 470 -476 0
-478 -4 -477 0
-478 4 -463 0
478 -4 477 0
478 4 463 0
-479 421 0
-479 -478 0
479 -421 478 0
-480 -2 0
-480 -4 0
480 2 4 0
-481 444 0
-481 480 0
481 -444 -480 0
-482 -421 0
-482 -480 0
482 421 480 0
-483 -10 0
-483 482 0
483 10 -482 0
-484 -479 0
-484 -481 0
484 479 481 0
-485 -483 0
-485 484 0
485 483 -484 0
-486 439 0
-486 485 0
486 -439 -485 0
-487 -447 0
-487 -448 0
487 447 448 0
-488 -486 0
-488 487 0
488 486 -487 0
-489 -247 0
-489 342 0
489 247 -342 0
-490 -489 264 0
-490 489 -264 0
490 -489 -264 0
490 489 264 0
-491 -275 0
-491 343 0
491 275 -343 0
-492 -491 292 0
-492 491 -292 0
492 -491 -292 0
492 491 292 0
-493 -362 0
-493 -490 0
493 362 490 0
-494 -492 0
-494 493 0
494 492 -493 0
-495 -444 0
-495 494 0
495 444 -494 0
-496 323 0
-496 -362 0
496 -323 362 0
-497 323 0
-497 363 0
497 -323 -363 0
-498 339 0
-498 -497 0
498 -339 497 0
-499 -259 0
-499 -342 0
499 259 342 0
-500 -287 0
-500 -343 0
500 287 343 0
-501 -490 0
-501 500 0
501 490 -500 0
-502 -315 0
-502 -343 0
502 315 343 0
-503 -490 0
-503 -492 0
503 490 492 0
-504 502 0
-504 503 0
504 -502 -503 0
-505 -444 0
-505 503 0
505 444 -503 0
-506 363 0
-506 505 0
506 -363 -505 0
-507 -499 0
-507 -501 0
507 499 501 0
-508 -504 0
-508 507 0
508 504 -507 0
-509 -506 0
-509 508 0
509 506 -508 0
-510 -127 0
-510 343 0
510 127 -343 0
-511 -510 145 0
-511 510 -145 0
511 -510 -145 0
511 510 145 0
-512 348 0
-512 -511 0
512 -348 511 0
-513 47 0
-513 512 0
513 -47 -512 0
-514 -92 0
-514 343 0
514 92 -343 0
-515 -514 115 0
-515 514 -115 0
515 -514 -115 0
515 514 115 0
-516 -140 0
-516 -343 0
516 140 343 0
-517 349 0
-517 -511 0
517 -349 511 0
-518 -347 0
-518 -511 0
518 347 511 0
-519 350 0
-519 518 0
519 -350 -518 0
-520 -516 0
-520 -517 0
520 516 517 0
-521 -519 0
-521 520 0
521 519 -520 0
-522 -521 515 0
-522 521 -515 0
522 -521 -515 0
522 521 515 0
-523 -522 -513 0
-523 522 513 0
523 -522 513 0
523 522 -513 0
-524 -371 0
-524 -523 0
524 371 523 0
-525 47 0
-525 -345 0
525 -47 345 0
-526 350 347 0
-526 -350 -347 0
526 350 -347 0
526 -350 347 0
-527 -526 -525 0
-527 526 525 0
527 -526 525 0
527 526 -525 0
-528 511 -352 0
-528 -511 352 0
528 511 352 0
528 -511 -352 0
-529 -528 -353 0
-529 528 353 0
529 -528 353 0
529 528 -353 0
-530 -527 0
-530 -529 0
530 527 529 0
-531 -523 0
-531 530 0
531 523 -530 0
-532 -366 -531 0
-532 366 523 0
532 -366 531 0
532 366 -523 0
-533 354 0
-533 -532 0
533 -354 532 0
-534 19 0
-534 378 0
534 -19 -378 0
-535 10 0
-535 381 0
535 -10 -381 0
-536 9 0
-536 383 0
536 -9 -383 0
-537 8 0
-537 385 0
537 -8 -385 0
-538 7 0
-538 388 0
538 -7 -388 0
-539 22 0
-539 391 0
539 -22 -391 0
-540 21 0
-540 393 0
540 -21 -393 0
-541 20 0
-541 395 0
541 -20 -395 0
-542 -534 0
-542 -535 0
542 534 535 0
-543 -536 0
-543 542 0
543 536 -542 0
-544 -537 0
-544 543 0
544 537 -543 0
-545 -538 0
-545 544 0
545 538 -544 0
-546 -539 0
-546 545 0
546 539 -545 0
-547 -540 0
-547 546 0
547 540 -546 0
-548 -541 0
-548 547 0
548 541 -547 0
-549 43 0
-549 378 0
549 -43 -378 0
-550 12 0
-550 381 0
550 -12 -381 0
-551 13 0
-551 383 0
551 -13 -383 0
-552 14 0
-552 385 0
552 -14 -385 0
-553 39 0
-553 388 0
553 -39 -388 0
-554 40 0
-554 391 0
554 -40 -391 0
-555 41 0
-555 393 0
555 -41 -393 0
-556 42 0
-556 395 0
556 -42 -395 0
-557 -549 0
-557 -550 0
557 549 550 0
-558 -551 0
-558 557 0
558 551 -557 0
-559 -552 0
-559 558 0
559 552 -558 0
-560 -553 0
-560 559 0
560 553 -559 0
-561 -554 0
-561 560 0
561 554 -560 0
-562 -555 0
-562 561 0
562 555 -561 0
-563 -556 0
-563 562 0
563 556 -562 0
-564 -4 -563 0
-564 4 -548 0
564 -4 563 0
564 4 548 0
-565 421 0
-565 -564 0
565 -421 564 0
-566 424 0
-566 515 0
566 -424 -515 0
-567 -61 0
-567 427 0
567 61 -427 0
-568 -11 0
-568 431 0
568 11 -431 0
-569 -429 0
-569 -567 0
569 429 567 0
-570 -568 0
-570 569 0
570 568 -569 0
-571 435 0
-571 -570 0
571 -435 570 0
-572 -565 0
-572 -566 0
572 565 566 0
-573 -571 0
-573 572 0
573 571 -572 0
-574 439 0
-574 573 0
574 -439 -573 0
-575 -524 0
-575 -533 0
575 524 533 0
-576 -574 0
-576 575 0
576 574 -575 0
-577 -371 0
-577 -527 0
577 371 527 0
-578 366 0
-578 -527 0
578 -366 527 0
-579 527 -366 0
-579 -527 366 0
579 527 366 0
579 -527 -366 0
-580 354 0
-580 579 0
580 -354 -579 0
-581 21 0
-581 378 0
581 -21 -378 0
-582 11 0
-582 383 0
582 -11 -383 0
-583 10 0
-583 385 0
583 -10 -385 0
-584 9 0
-584 388 0
584 -9 -388 0
-585 8 0
-585 391 0
585 -8 -391 0
-586 7 0
-586 393 0
586 -7 -393 0
-587 22 0
-587 395 0
587 -22 -395 0
-588 -550 0
-588 -581 0
588 550 581 0
-589 -582 0
-589 588 0
589 582 -588 0
-590 -583 0
-590 589 0
590 583 -589 0
-591 -584 0
-591 590 0
591 584 -590 0
-592 -585 0
-592 591 0
592 585 -591 0
-593 -586 0
-593 592 0
593 586 -592 0
-594 -587 0
-594 593 0
594 587 -593 0
-595 45 0
-595 378 0
595 -45 -378 0
-596 14 0
-596 381 0
596 -14 -381 0
-597 39 0
-597 383 0
597 -39 -383 0
-598 40 0
-598 385 0
598 -40 -385 0
-599 41 0
-599 388 0
599 -41 -388 0
-600 42 0
-600 391 0
600 -42 -391 0
-601 43 0
-601 393 0
601 -43 -393 0
-602 44 0
-602 395 0
602 -44 -395 0
-603 -595 0
-603 -596 0
603 595 596 0
-604 -597 0
-604 603 0
604 597 -603 0
-605 -598 0
-605 604 0
605 598 -604 0
-606 -599 0
-606 605 0
606 599 -605 0
-607 -600 0
-607 606 0
607 600 -606 0
-608 -601 0
-608 607 0
608 601 -607 0
-609 -602 0
-609 608 0
609 602 -608 0
-610 -4 -609 0
-610 4 -594 0
610 -4 609 0
610 4 594 0
-611 421 0
-611 -610 0
611 -421 610 0
-612 347 0
-612 424 0
612 -347 -424 0
-613 9 0
-613 10 0
613 -9 -10 0
-614 367 0
-614 -613 0
614 -367 613 0
-615 -7 0
-615 614 0
615 7 -614 0
-616 8 0
-616 615 0
616 -8 -615 0
-617 6 -616 0
-617 -6 -64 0
617 6 616 0
617 -6 64 0
-618 427 0
-618 617 0
618 -427 -617 0
-619 -367 0
-619 429 0
619 367 -429 0
-620 -13 0
-620 431 0
620 13 -431 0
-621 -618 0
-621 -619 0
621 618 619 0
-622 -620 0
-622 621 0
622 620 -621 0
-623 435 0
-623 -622 0
623 -435 622 0
-624 -611 0
-624 -612 0
624 611 612 0
-625 -623 0
-625 624 0
625 623 -624 0
-626 439 0
-626 625 0
626 -439 -625 0
-627 -577 0
-627 -580 0
627 577 580 0
-628 -626 0
-628 627 0
628 626 -627 0
-629 -371 0
-629 -529 0
629 371 529 0
-630 -578 -529 0
-630 578 529 0
630 -578 529 0
630 578 -529 0
-631 354 0
-631 -630 0
631 -354 630 0
-632 20 0
-632 378 0
632 -20 -378 0
-633 10 0
-633 383 0
633 -10 -383 0
-634 9 0
-634 385 0
634 -9 -385 0
-635 8 0
-635 388 0
635 -8 -388 0
-636 7 0
-636 391 0
636 -7 -391 0
-637 22 0
-637 393 0
637 -22 -393 0
-638 21 0
-638 395 0
638 -21 -395 0
-639 -465 0
-639 -632 0
639 465 632 0
-640 -633 0
-640 639 0
640 633 -639 0
-641 -634 0
-641 640 0
641 634 -640 0
-642 -635 0
-642 641 0
642 635 -641 0
-643 -636 0
-643 642 0
643 636 -642 0
-644 -637 0
-644 643 0
644 637 -643 0
-645 -638 0
-645 644 0
645 638 -644 0
-646 44 0
-646 378 0
646 -44 -378 0
-647 14 0
-647 383 0
647 -14 -383 0
-648 39 0
-648 385 0
648 -39 -385 0
-649 40 0
-649 388 0
649 -40 -388 0
-650 41 0
-650 391 0
650 -41 -391 0
-651 42 0
-651 393 0
651 -42 -393 0
-652 43 0
-652 395 0
652 -43 -395 0
-653 -382 0
-653 -646 0
653 382 646 0
-654 -647 0
-654 653 0
654 647 -653 0
-655 -648 0
-655 654 0
655 648 -654 0
-656 -649 0
-656 655 0
656 649 -655 0
-657 -650 0
-657 656 0
657 650 -656 0
-658 -651 0
-658 657 0
658 651 -657 0
-659 -652 0
-659 658 0
659 652 -658 0
-660 -4 -659 0
-660 4 -645 0
660 -4 659 0
660 4 645 0
-661 421 0
-661 -660 0
661 -421 660 0
-662 424 0
-662 511 0
662 -424 -511 0
-663 -67 0
-663 427 0
663 67 -427 0
-664 -12 0
-664 431 0
664 12 -431 0
-665 -429 0
-665 -663 0
665 429 663 0
-666 -664 0
-666 665 0
666 664 -665 0
-667 435 0
-667 -666 0
667 -435 666 0
-668 -661 0
-668 -662 0
668 661 662 0
-669 -667 0
-669 668 0
669 667 -668 0
-670 439 0
-670 669 0
670 -439 -669 0
-671 -629 0
-671 -631 0
671 629 631 0
-672 -670 0
-672 671 0
672 670 -671 0
-673 -362 0
-673 -444 0
673 362 444 0
-674 -492 0
-674 673 0
674 492 -673 0
-675 47 0
-675 674 0
675 -47 -674 0
-676 -492 0
-676 502 0
676 492 -502 0
-677 -444 0
-677 -492 0
677 444 492 0
-678 363 0
-678 677 0
678 -363 -677 0
-679 -500 0
-679 -676 0
679 500 676 0
-680 -678 0
-680 679 0
680 678 -679 0
-681 -680 490 0
-681 680 -490 0
681 -680 -490 0
681 680 490 0
-682 -681 -675 0
-682 681 675 0
682 -681 675 0
682 681 -675 0
-683 -371 0
-683 -682 0
683 371 682 0
-684 47 0
-684 673 0
684 -47 -673 0
-685 363 0
-685 -444 0
685 -363 444 0
-686 -502 0
-686 -685 0
686 502 685 0
-687 -686 492 0
-687 686 -492 0
687 -686 -492 0
687 686 492 0
-688 -687 -684 0
-688 687 684 0
688 -687 684 0
688 687 -684 0
-689 47 0
-689 496 0
689 -47 -496 0
-690 498 0
-690 689 0
690 -498 -689 0
-691 498 0
-691 -690 0
691 -498 690 0
-692 -688 0
-692 691 0
692 688 -691 0
-693 -692 -682 0
-693 692 682 0
693 -692 682 0
693 692 -682 0
-694 354 0
-694 -693 0
694 -354 693 0
-695 16 0
-695 378 0
695 -16 -378 0
-696 7 0
-696 381 0
696 -7 -381 0
-697 22 0
-697 383 0
697 -22 -383 0
-698 21 0
-698 385 0
698 -21 -385 0
-699 20 0
-699 388 0
699 -20 -388 0
-700 19 0
-700 391 0
700 -19 -391 0
-701 18 0
-701 393 0
701 -18 -393 0
-702 17 0
-702 395 0
702 -17 -395 0
-703 -695 0
-703 -696 0
703 695 696 0
-704 -697 0
-704 703 0
704 697 -703 0
-705 -698 0
-705 704 0
705 698 -704 0
-706 -699 0
-706 705 0
706 699 -705 0
-707 -700 0
-707 706 0
707 700 -706 0
-708 -701 0
-708 707 0
708 701 -707 0
-709 -702 0
-709 708 0
709 702 -708 0
-710 40 0
-710 378 0
710 -40 -378 0
-711 12 0
-711 388 0
711 -12 -388 0
-712 13 0
-712 391 0
712 -13 -391 0
-713 14 0
-713 393 0
713 -14 -393 0
-714 39 0
-714 395 0
714 -39 -395 0
-715 -450 0
-715 -710 0
715 450 710 0
-716 -633 0
-716 715 0
716 633 -715 0
-717 -386 0
-717 716 0
717 386 -716 0
-718 -711 0
-718 717 0
718 711 -717 0
-719 -712 0
-719 718 0
719 712 -718 0
-720 -713 0
-720 719 0
720 713 -719 0
-721 -714 0
-721 720 0
721 714 -720 0
-722 -4 -721 0
-722 4 -709 0
722 -4 721 0
722 4 709 0
-723 421 0
-723 -722 0
723 -421 722 0
-724 480 0
-724 490 0
724 -480 -490 0
-725 -8 0
-725 482 0
725 8 -482 0
-726 -723 0
-726 -724 0
726 723 724 0
-727 -725 0
-727 726 0
727 725 -726 0
-728 439 0
-728 727 0
728 -439 -727 0
-729 -683 0
-729 -694 0
729 683 694 0
-730 -728 0
-730 729 0
730 728 -729 0
-731 47 0
-731 495 0
731 -47 -495 0
-732 -216 0
-732 342 0
732 216 -342 0
-733 -732 235 0
-733 732 -235 0
733 -732 -235 0
733 732 235 0
-734 733 -509 0
-734 -733 509 0
734 733 509 0
734 -733 -509 0
-735 -734 -731 0
-735 734 731 0
735 -734 731 0
735 734 -731 0
-736 -371 0
-736 -735 0
736 371 735 0
-737 -682 0
-737 -688 0
737 682 688 0
-738 -735 0
-738 737 0
738 735 -737 0
-739 -691 -738 0
-739 691 735 0
739 -691 738 0
739 691 -735 0
-740 354 0
-740 -739 0
740 -354 739 0
-741 15 0
-741 378 0
741 -15 -378 0
-742 22 0
-742 381 0
742 -22 -381 0
-743 21 0
-743 383 0
743 -21 -383 0
-744 20 0
-744 385 0
744 -20 -385 0
-745 19 0
-745 388 0
745 -19 -388 0
-746 18 0
-746 391 0
746 -18 -391 0
-747 17 0
-747 393 0
747 -17 -393 0
-748 16 0
-748 395 0
748 -16 -395 0
-749 -741 0
-749 -742 0
749 741 742 0
-750 -743 0
-750 749 0
750 743 -749 0
-751 -744 0
-751 750 0
751 744 -750 0
-752 -745 0
-752 751 0
752 745 -751 0
-753 -746 0
-753 752 0
753 746 -752 0
-754 -747 0
-754 753 0
754 747 -753 0
-755 -748 0
-755 754 0
755 748 -754 0
-756 -4 0
-756 -5 0
756 4 5 0
-757 755 0
-757 756 0
757 -755 -756 0
-758 39 0
-758 378 0
758 -39 -378 0
-759 8 0
-759 381 0
759 -8 -381 0
-760 11 0
-760 388 0
760 -11 -388 0
-761 12 0
-761 391 0
761 -12 -391 0
-762 13 0
-762 393 0
762 -13 -393 0
-763 14 0
-763 395 0
763 -14 -395 0
-764 -758 0
-764 -759 0
764 758 759 0
-765 -536 0
-765 764 0
765 536 -764 0
-766 -583 0
-766 765 0
766 583 -765 0
-767 -760 0
-767 766 0
767 760 -766 0
-768 -761 0
-768 767 0
768 761 -767 0
-769 -762 0
-769 768 0
769 762 -768 0
-770 -763 0
-770 769 0
770 763 -769 0
-771 4 0
-771 -5 0
771 -4 5 0
-772 770 0
-772 771 0
772 -770 -771 0
-773 -756 0
-773 -771 0
773 756 771 0
-774 -7 0
-774 773 0
774 7 -773 0
-775 -757 0
-775 -772 0
775 757 772 0
-776 -774 0
-776 775 0
776 774 -775 0
-777 421 0
-777 -776 0
777 -421 776 0
-778 480 0
-778 733 0
778 -480 -733 0
-779 -7 0
-779 482 0
779 7 -482 0
-780 -777 0
-780 -778 0
780 777 778 0
-781 -779 0
-781 780 0
781 779 -780 0
-782 439 0
-782 781 0
782 -439 -781 0
-783 -736 0
-783 -740 0
783 736 740 0
-784 -782 0
-784 783 0
784 782 -783 0
-785 -371 0
-785 -688 0
785 371 688 0
-786 -691 688 0
-786 691 -688 0
786 -691 -688 0
786 691 688 0
-787 354 0
-787 786 0
787 -354 -786 0
-788 17 0
-788 378 0
788 -17 -378 0
-789 7 0
-789 383 0
789 -7 -383 0
-790 22 0
-790 385 0
790 -22 -385 0
-791 21 0
-791 388 0
791 -21 -388 0
-792 20 0
-792 391 0
792 -20 -391 0
-793 19 0
-793 393 0
793 -19 -393 0
-794 18 0
-794 395 0
794 -18 -395 0
-795 -759 0
-795 -788 0
795 759 788 0
-796 -789 0
-796 795 0
796 789 -795 0
-797 -790 0
-797 796 0
797 790 -796 0
-798 -791 0
-798 797 0
798 791 -797 0
-799 -792 0
-799 798 0
799 792 -798 0
-800 -793 0
-800 799 0
800 793 -799 0
-801 -794 0
-801 800 0
801 794 -800 0
-802 41 0
-802 378 0
802 -41 -378 0
-803 12 0
-803 385 0
803 -12 -385 0
-804 13 0
-804 388 0
804 -13 -388 0
-805 14 0
-805 391 0
805 -14 -391 0
-806 39 0
-806 393 0
806 -39 -393 0
-807 40 0
-807 395 0
807 -40 -395 0
-808 -535 0
-808 -802 0
808 535 802 0
-809 -582 0
-809 808 0
809 582 -808 0
-810 -803 0
-810 809 0
810 803 -809 0
-811 -804 0
-811 810 0
811 804 -810 0
-812 -805 0
-812 811 0
812 805 -811 0
-813 -806 0
-813 812 0
813 806 -812 0
-814 -807 0
-814 813 0
814 807 -813 0
-815 -4 -814 0
-815 4 -801 0
815 -4 814 0
815 4 801 0
-816 421 0
-816 -815 0
816 -421 815 0
-817 480 0
-817 492 0
817 -480 -492 0
-818 -9 0
-818 482 0
818 9 -482 0
-819 -816 0
-819 -817 0
819 816 817 0
-820 -818 0
-820 819 0
820 818 -819 0
-821 439 0
-821 820 0
821 -439 -820 0
-822 -785 0
-822 -787 0
822 785 787 0
-823 -821 0
-823 822 0
823 821 -822 0
-824 -672 576 0
-824 672 -576 0
824 -672 -576 0
824 672 576 0
-825 628 -442 0
-825 -628 442 0
825 628 442 0
825 -628 -442 0
-826 -825 824 0
-826 825 -824 0
826 -825 -824 0
826 825 824 0
-827 823 -488 0
-827 -823 488 0
827 823 488 0
827 -823 -488 0
-828 784 -730 0
-828 -784 730 0
828 784 730 0
828 -784 -730 0
-829 828 -827 0
-829 -828 827 0
829 828 827 0
829 -828 -827 0
-830 829 -826 0
-830 -829 826 0
830 0
